0	0	0
11	24	26
36	49	17
47	39	6
51	30	15
25	24	7
11	29	5
16	33	15
46	33	16
41	59	17
-9	9	1
-25	35	21
-33	13	66
16	23	25
1	14	16
37	53	11
-33	-22	7
-9	23	17
11	28	17
11	40	22
32	53	10
-23	4	25
47	15	16
51	-21	7
41	-11	21
-19	-10	11
56	14	21
-19	-31	11
-3	-5	21
-24	64	22
-28	-25	25
17	-26	2
-8	5	22
